(set-logic QF_UF)
(declare-fun A0 () Bool)
(declare-fun A1 () Bool)
(declare-fun A2 () Bool)
(declare-fun A3 () Bool)
(declare-fun A4 () Bool)
(declare-fun A5 () Bool)
(declare-fun A6 () Bool)
(declare-fun A7 () Bool)
(declare-fun A8 () Bool)
(declare-fun A9 () Bool)
(declare-fun A11 () Bool)
(declare-fun A12 () Bool)
(declare-fun A13 () Bool)
(declare-fun A14 () Bool)
(declare-fun A15 () Bool)
(declare-fun A16 () Bool)
(declare-fun A17 () Bool)
(declare-fun A18 () Bool)
(declare-fun A19 () Bool)
(declare-fun A20 () Bool)
(declare-fun A21 () Bool)
(declare-fun A22 () Bool)
(declare-fun A23 () Bool)
(declare-fun A24 () Bool)
(assert (let ((.def_0 (not A18))) (let ((.def_1 (or .def_0 A15))) (let ((.def_2 (not A11))) (let ((.def_3 (not A15))) (let ((.def_4 (= .def_3 .def_2))) (let ((.def_5 (not .def_4))) (let ((.def_6 (or .def_5 .def_1))) (let ((.def_7 (not .def_6))) (let ((.def_8 (not A3))) (let ((.def_9 (or A9 .def_8))) (let ((.def_10 (not .def_9))) (let ((.def_11 (or .def_0 .def_0))) (let ((.def_12 (and .def_11 .def_10))) (let ((.def_13 (not .def_12))) (let ((.def_14 (and .def_13 .def_7))) (let ((.def_15 (not .def_14))) (let ((.def_16 (not A2))) (let ((.def_17 (or .def_16 .def_2))) (let ((.def_18 (not .def_17))) (let ((.def_19 (not A5))) (let ((.def_20 (or A8 .def_19))) (let ((.def_21 (= .def_20 .def_18))) (let ((.def_22 (not .def_21))) (let ((.def_23 (not A7))) (let ((.def_24 (and .def_23 .def_3))) (let ((.def_25 (not .def_24))) (let ((.def_26 (or A12 A9))) (let ((.def_27 (and .def_26 .def_25))) (let ((.def_28 (not .def_27))) (let ((.def_29 (and .def_28 .def_22))) (let ((.def_30 (not .def_29))) (let ((.def_31 (or .def_30 .def_15))) (let ((.def_32 (or A17 A20))) (let ((.def_33 (not .def_32))) (let ((.def_34 (and A12 A13))) (let ((.def_35 (or .def_34 .def_33))) (let ((.def_36 (or A15 .def_2))) (let ((.def_37 (and .def_16 A16))) (let ((.def_38 (not .def_37))) (let ((.def_39 (or .def_38 .def_36))) (let ((.def_40 (and .def_39 .def_35))) (let ((.def_41 (not .def_40))) (let ((.def_42 (or .def_16 A12))) (let ((.def_43 (not .def_42))) (let ((.def_44 (not A1))) (let ((.def_45 (not A22))) (let ((.def_46 (or .def_45 .def_44))) (let ((.def_47 (= .def_46 .def_43))) (let ((.def_48 (or A5 A0))) (let ((.def_49 (not A19))) (let ((.def_50 (and A11 .def_49))) (let ((.def_51 (= .def_50 .def_48))) (let ((.def_52 (not .def_51))) (let ((.def_53 (and .def_52 .def_47))) (let ((.def_54 (= .def_53 .def_41))) (let ((.def_55 (not .def_54))) (let ((.def_56 (or .def_55 .def_31))) (let ((.def_57 (not A6))) (let ((.def_58 (and A20 .def_57))) (let ((.def_59 (not A12))) (let ((.def_60 (not A17))) (let ((.def_61 (or .def_60 .def_59))) (let ((.def_62 (not .def_61))) (let ((.def_63 (and .def_62 .def_58))) (let ((.def_64 (not .def_63))) (let ((.def_65 (and .def_0 A7))) (let ((.def_66 (not .def_65))) (let ((.def_67 (not A14))) (let ((.def_68 (and .def_67 .def_57))) (let ((.def_69 (and .def_68 .def_66))) (let ((.def_70 (not .def_69))) (let ((.def_71 (and .def_70 .def_64))) (let ((.def_72 (not .def_71))) (let ((.def_73 (or A20 A14))) (let ((.def_74 (not .def_73))) (let ((.def_75 (not A23))) (let ((.def_76 (not A0))) (let ((.def_77 (and .def_76 .def_75))) (let ((.def_78 (not .def_77))) (let ((.def_79 (or .def_78 .def_74))) (let ((.def_80 (or .def_49 A4))) (let ((.def_81 (or .def_49 .def_75))) (let ((.def_82 (and .def_81 .def_80))) (let ((.def_83 (not .def_82))) (let ((.def_84 (or .def_83 .def_79))) (let ((.def_85 (or .def_84 .def_72))) (let ((.def_86 (and A0 A11))) (let ((.def_87 (not A24))) (let ((.def_88 (and .def_76 .def_87))) (let ((.def_89 (and .def_88 .def_86))) (let ((.def_90 (and .def_45 .def_67))) (let ((.def_91 (or .def_8 A6))) (let ((.def_92 (or .def_91 .def_90))) (let ((.def_93 (and .def_92 .def_89))) (let ((.def_94 (not .def_93))) (let ((.def_95 (or A23 A2))) (let ((.def_96 (or .def_67 .def_59))) (let ((.def_97 (not .def_96))) (let ((.def_98 (or .def_97 .def_95))) (let ((.def_99 (not A21))) (let ((.def_100 (or .def_99 A11))) (let ((.def_101 (and A19 .def_2))) (let ((.def_102 (not .def_101))) (let ((.def_103 (or .def_102 .def_100))) (let ((.def_104 (not .def_103))) (let ((.def_105 (or .def_104 .def_98))) (let ((.def_106 (not .def_105))) (let ((.def_107 (= .def_106 .def_94))) (let ((.def_108 (or .def_107 .def_85))) (let ((.def_109 (not .def_108))) (let ((.def_110 (or .def_109 .def_56))) .def_110))))))))))))))))))))))))))))))))))))))))))))))))))))))))))))))))))))))))))))))))))))))))))))))))))))))))))))))))
(check-sat)
